148,322
1055,216
1036,350
947,364
741,406
548,474
387,555
570,748
542,833
695,494
702,427
699,349
761,366
823,360
792,64
838,-79
269,107
606,-68
898,-21
1020,160
947,599
681,766
533,554
512,575
646,358
664,382
196,563
504,378
627,300
668,432
912,860
1191,406
644,169
450,-48
510,351
606,880
